Traveling Salesman Problem/TSP_generados/Aleatorio1620396084_17.tsp
NAME: Aleatorio1620396084_17.tsp
COMMENT: Randomly generated scenario
TYPE: TSP
DIMENSION: 17
EDGE_WEIGHT_TYPE: ATT
NODE_COORD_SECTION
1 28.06 4.53
2 30.09 8.28
3 33.64 22.91
4 40.85 22.66
5 43.63 44.58
6 2.76 42.83
7 45.25 7.08
8 45.25 20.86
9 5.18 32.72
10 40.73 8.69
11 41.93 41.24
12 37.57 8.66
13 18.11 26.95
14 3.42 16.06
15 38.01 49.1
16 46.05 44.66
17 8.35 42.29
