Traveling Salesman Problem/TSP_generados/Aleatorio1620396084_17.opt.tour
NAME: Aleatorio1620396084_17.opt.tour
COMMENT: Optimal solution for Aleatorio1620396084_17 (186.57699100386108)
TYPE: TOUR
DIMENSION: 17
TOUR_SECTION
1 2 12 10 7 8 4 3 11 16 5 15 17 6 9 14 13
-1
EOF
